\ Model RMP
\ LP format - for model browsing. Use MPS format to capture full model detail.
Minimize
  Artificial
Subject To
 capacity_cons: - Artificial <= 625
 capacity_cons: - Artificial <= 625
 capacity_cons: - Artificial <= 625
 capacity_cons: - Artificial <= 625
 capacity_cons: - Artificial + 600 lam_phase1_1 <= 625
 capacity_cons: - Artificial + 800 lam_phase1_1 <= 625
 capacity_cons: - Artificial <= 625
 capacity_cons: - Artificial + 600 lam_phase1_1 <= 625
 capacity_cons: - Artificial + 400 lam_phase1_1 <= 625
 capacity_cons: - Artificial + 400 lam_phase1_1 <= 625
 capacity_cons: - Artificial + 75 lam_phase1_1 <= 625
 capacity_cons: - Artificial + 975 lam_phase1_1 <= 625
 capacity_cons: - Artificial + 50 lam_phase1_1 <= 625
 capacity_cons: - Artificial + 100 lam_phase1_1 <= 625
 capacity_cons: - Artificial + 300 lam_phase1_1 <= 625
 capacity_cons: - Artificial + 750 lam_phase1_1 <= 625
 capacity_cons: - Artificial + 100 lam_phase1_1 <= 625
 capacity_cons: - Artificial + 300 lam_phase1_1 <= 625
 capacity_cons: - Artificial + 225 lam_phase1_1 <= 625
 capacity_cons: - Artificial + 325 lam_phase1_1 <= 625
 capacity_cons: - Artificial + 900 lam_phase1_1 <= 625
 convex_cons: lam_phase1_1 = 1
Bounds
End
